(set-info :source |printed by MathSAT|)
(declare-fun |.x{59}| () Int)
(declare-fun |.y{8}| () Int)
(declare-fun |.x{66}| () Int)
(declare-fun |.y{9}| () Int)
(declare-fun |.x{60}| () Int)
(declare-fun |.y{10}| () Int)
(declare-fun |.x{67}| () (Array Int Int))
(declare-fun |.y{11}| () (Array Int Int))
(declare-fun |.x{70}| () Int)
(declare-fun |.y{12}| () Int)
(declare-fun |.x{71}| () (Array Int Int))
(declare-fun |.y{13}| () (Array Int Int))
(declare-fun |.x{64}| () Int)
(declare-fun |.y{14}| () Int)
(declare-fun |.loc{3}| () Bool)
(declare-fun |.loc{5}| () Bool)
(declare-fun |.loc{4}| () Bool)
(declare-fun |.loc{6}| () Bool)
(declare-fun |.x{72}| () Int)
(declare-fun |.x{68}| () Int)
(declare-fun |.x{69}| () Int)
(define-fun .def_24 () Bool (! |.loc{4}| :next |.loc{6}|))
(define-fun .def_130 () Bool (not .def_24))
(define-fun .def_22 () Bool (! |.loc{3}| :next |.loc{5}|))
(define-fun .def_82 () Bool (not .def_22))
(define-fun .def_132 () Bool (! (and .def_82 .def_130) :init true))
(define-fun .def_16 () Int (! |.x{70}| :next |.y{12}|))
(define-fun .def_32 () Bool (<= .def_16 0))
(define-fun .def_28 () Bool (<= |.x{72}| 0))
(define-fun .def_29 () Bool (not .def_28))
(define-fun .def_126 () Bool (or .def_29 .def_32))
(define-fun .def_43 () Int (* (- 1) |.x{68}|))
(define-fun .def_122 () Int (+ .def_43 |.x{69}|))
(define-fun .def_10 () Int (! |.x{66}| :next |.y{9}|))
(define-fun .def_123 () Int (+ .def_10 .def_122))
(define-fun .def_124 () Bool (= .def_123 0))
(define-fun .def_120 () Bool (not |.loc{5}|))
(define-fun .def_14 () (Array Int Int) (! |.x{67}| :next |.y{11}|))
(define-fun .def_115 () Int (select .def_14 |.x{68}|))
(define-fun .def_18 () (Array Int Int) (! |.x{71}| :next |.y{13}|))
(define-fun .def_114 () Int (select .def_18 |.x{72}|))
(define-fun .def_116 () Bool (= .def_114 .def_115))
(define-fun .def_117 () Bool (not .def_116))
(define-fun .def_49 () Bool (<= |.x{68}| 0))
(define-fun .def_50 () Bool (not .def_49))
(define-fun .def_30 () Bool (<= .def_10 0))
(define-fun .def_111 () Bool (or .def_30 .def_50))
(define-fun .def_107 () Bool (<= 100 |.x{69}|))
(define-fun .def_108 () Bool (not .def_107))
(define-fun .def_104 () Bool (<= 0 |.x{69}|))
(define-fun .def_106 () Bool (not .def_104))
(define-fun .def_109 () Bool (or .def_106 .def_108))
(define-fun .def_75 () Int (* (- 1) |.x{72}|))
(define-fun .def_98 () Int (+ .def_75 |.x{69}|))
(define-fun .def_99 () Int (+ .def_16 .def_98))
(define-fun .def_100 () Bool (= .def_99 0))
(define-fun .def_33 () Bool (not .def_32))
(define-fun .def_101 () Bool (and .def_33 .def_100))
(define-fun .def_12 () Int (! |.x{60}| :next |.y{10}|))
(define-fun .def_36 () Bool (<= 100 .def_12))
(define-fun .def_102 () Bool (and .def_36 .def_101))
(define-fun .def_103 () Bool (and .def_22 .def_102))
(define-fun .def_105 () Bool (and .def_103 .def_104))
(define-fun .def_110 () Bool (and .def_105 .def_109))
(define-fun .def_112 () Bool (and .def_110 .def_111))
(define-fun .def_72 () Bool (not .def_30))
(define-fun .def_113 () Bool (and .def_72 .def_112))
(define-fun .def_118 () Bool (and .def_113 .def_117))
(define-fun .def_119 () Bool (and |.loc{6}| .def_118))
(define-fun .def_121 () Bool (and .def_119 .def_120))
(define-fun .def_125 () Bool (and .def_121 .def_124))
(define-fun .def_127 () Bool (and .def_125 .def_126))
(define-fun .def_93 () Bool (= .def_10 |.y{14}|))
(define-fun .def_89 () Bool (<= |.y{9}| 0))
(define-fun .def_90 () Bool (not .def_89))
(define-fun .def_86 () Bool (<= |.y{12}| 0))
(define-fun .def_87 () Bool (not .def_86))
(define-fun .def_84 () Bool (= |.y{10}| 0))
(define-fun .def_39 () Bool (not |.loc{6}|))
(define-fun .def_83 () Bool (and .def_39 .def_82))
(define-fun .def_85 () Bool (and .def_83 .def_84))
(define-fun .def_88 () Bool (and .def_85 .def_87))
(define-fun .def_91 () Bool (and .def_88 .def_90))
(define-fun .def_8 () Int (! |.x{59}| :next |.y{8}|))
(define-fun .def_61 () Bool (= .def_8 |.y{8}|))
(define-fun .def_92 () Bool (and .def_61 .def_91))
(define-fun .def_94 () Bool (and .def_92 .def_93))
(define-fun .def_95 () Bool (and |.loc{5}| .def_94))
(define-fun .def_128 () Bool (or .def_95 .def_127))
(define-fun .def_78 () Int (+ .def_12 .def_75))
(define-fun .def_79 () Int (+ .def_10 .def_78))
(define-fun .def_80 () Bool (= .def_79 0))
(define-fun .def_69 () (Array Int Int) (store .def_14 |.x{72}| |.x{69}|))
(define-fun .def_70 () Bool (= |.y{11}| .def_69))
(define-fun .def_20 () Int (! |.x{64}| :next |.y{14}|))
(define-fun .def_67 () Bool (= .def_20 |.y{14}|))
(define-fun .def_64 () (Array Int Int) (store .def_18 |.x{68}| |.x{69}|))
(define-fun .def_65 () Bool (= |.y{13}| .def_64))
(define-fun .def_59 () Bool (= .def_16 |.y{12}|))
(define-fun .def_55 () Int (* (- 1) |.y{10}|))
(define-fun .def_56 () Int (+ .def_12 .def_55))
(define-fun .def_57 () Bool (= .def_56 (- 1)))
(define-fun .def_53 () Bool (= .def_10 |.y{9}|))
(define-fun .def_51 () Bool (or .def_32 .def_50))
(define-fun .def_44 () Int (+ .def_16 .def_43))
(define-fun .def_45 () Int (+ .def_12 .def_44))
(define-fun .def_46 () Bool (= .def_45 0))
(define-fun .def_37 () Bool (not .def_36))
(define-fun .def_31 () Bool (or .def_29 .def_30))
(define-fun .def_34 () Bool (and .def_31 .def_33))
(define-fun .def_38 () Bool (and .def_34 .def_37))
(define-fun .def_40 () Bool (and .def_38 .def_39))
(define-fun .def_47 () Bool (and .def_40 .def_46))
(define-fun .def_48 () Bool (and .def_22 .def_47))
(define-fun .def_52 () Bool (and .def_48 .def_51))
(define-fun .def_54 () Bool (and .def_52 .def_53))
(define-fun .def_58 () Bool (and .def_54 .def_57))
(define-fun .def_60 () Bool (and .def_58 .def_59))
(define-fun .def_62 () Bool (and .def_60 .def_61))
(define-fun .def_66 () Bool (and .def_62 .def_65))
(define-fun .def_68 () Bool (and .def_66 .def_67))
(define-fun .def_71 () Bool (and .def_68 .def_70))
(define-fun .def_73 () Bool (and .def_71 .def_72))
(define-fun .def_74 () Bool (and |.loc{5}| .def_73))
(define-fun .def_81 () Bool (and .def_74 .def_80))
(define-fun .def_129 () Bool (or .def_81 .def_128))
(define-fun .def_131 () Bool (! (and .def_129 .def_130) :trans true))
(define-fun .def_133 () Bool (and .def_24 .def_82))
(define-fun .def_134 () Bool (! (not .def_133) :invar-property 0))
(assert true)
